L=18;
no=4;
njo=[7,4,3,10];
djo=[7,9,8,5];
trab=[12,12,6,2,2,2,2,12,12,6,2,2,2,2,2,2,12,12,3,3,3,3,3,3,6,6,6,6,6];
nprec=3;
prec=[| 12, 15,
      | 13, 18,
      | 14, 21 |];


%%%%%%%%%%%%%%%%%%%%%%%%%%%%%%%%%%%%%%%%%%%%%%%%%%%%%%%%%%%%%%%%%%%%%%
%  4
%
%  7   1   7   7   38
%  12  12  6   2   2   2   2
%  1   1   1   0   0
%  1   2   2   0   0
%  1   3   3   0   0
%  1   4   4   0   0
%  1   5   5   0   0
%  1   6   6   0   0
%  1   7   7   0   0
%
%  4   8   11  9   42
%  12  12  6   2   2   2   2   2   2
%  2   1   8   0   0
%  2   2   9   0   0
%  2   3   10  0   0
%  2   4   11  0   0
%
%  3   12  14   8   42
%  12  12  3    3   3   3   3   3
%  3   1   12   0   1
%		4   1    15
%  3   2   13   0   1
%		4   4    18
%  3   3   14   0   1
%		4   7    21
%
%  10  15  24  5   42
%  6   6   6   6   6
%  4   1   15  1   0
%		3   1   12
%  4   2   16  0   0
%  4   3   17  0   0
%  4   4   18  1   0
%		3   2   13
%  4   5   19  0   0
%  4   6   20  0   0
%  4   7   21  1   0
%		3   3   14
%  4   8   22  0   0
%  4   9   23  0   0
%  4   10  24  0   0
%
%58 